WARNING: for repeatability, setting FPU to use double precision
============================[ Problem Statistics ]=============================
|                                                                             |
|  Number of variables:           100                                         |
|  Number of clauses:             449                                         |
|  Parse time:                   0.00 s                                       |
|  Eliminated clauses:           0.00 Mb                                      |
|  Simplification time:          0.00 s                                       |
|                                                                             |
============================[ Search Statistics ]==============================
| Conflicts |          ORIGINAL         |          LEARNT          | Progress |
|           |    Vars  Clauses Literals |    Limit  Clauses Lit/Cl |          |
===============================================================================
|       100 |      98      447     1357 |      163      100      7 |  0.010 % |
===============================================================================
restarts              : 2
conflicts             : 202            (65330 /sec)
decisions             : 268            (0.00 % random) (86675 /sec)
propagations          : 4515           (1460220 /sec)
conflict literals     : 1422           (16.21 % deleted)
Memory used           : 13.00 MB
CPU time              : 0.003092 s

SATISFIABLE
